language ESSENCE' 1.0
$ From "Some Minesweeper Configurations",page 2
letting r be 6
letting c be 6
letting game be [
     [-1,-1,-1,-1,-1,-1],
     [-1,2,2,2,2,-1],
     [-1,2,0,0,2,-1],
     [-1,2,0,0,2,-1],
     [-1,2,2,2,2,-1],
     [-1,-1,-1,-1,-1,-1]
   ]

